solution status: time limit reached
objective value:                                   42
NEG_B_2_0                                           1 	(obj:0)
POS_A_0_0                                           1 	(obj:0)
NEG_A_3_1                                           1 	(obj:0)
POS_A_3_2                                           1 	(obj:0)
POS_A_3_3                                           1 	(obj:0)
NEG_D_3_0                                           1 	(obj:0)
POS_D_0_0                                           1 	(obj:0)
POS_A_1_1                                           1 	(obj:0)
NEG_A_1_3                                           1 	(obj:0)
NEG_C_1_0                                           1 	(obj:0)
POS_D_1_0                                           1 	(obj:0)
NEG_A_2_1                                           1 	(obj:0)
POS_A_2_2                                           1 	(obj:0)
NEG_D_2_0                                           1 	(obj:0)
ABS_ALT_W_0_0                                       1 	(obj:1)
ABS_ALT_W_0_5                                       1 	(obj:1)
ABS_ALT_W_1_1                                       1 	(obj:1)
ABS_ALT_W_1_3                                       1 	(obj:1)
ABS_ALT_W_1_4                                       1 	(obj:1)
ABS_ALT_W_1_5                                       1 	(obj:1)
ABS_ALT_W_2_1                                       1 	(obj:1)
ABS_ALT_W_2_2                                       1 	(obj:1)
ABS_ALT_W_2_5                                       1 	(obj:1)
ABS_ALT_W_2_6                                       1 	(obj:1)
ABS_ALT_W_3_1                                       1 	(obj:1)
ABS_ALT_W_3_2                                       1 	(obj:1)
ABS_ALT_W_3_3                                       1 	(obj:1)
ABS_ALT_W_3_5                                       1 	(obj:1)
ABS_ALT_U_0_0                                       1 	(obj:1)
U_0_0                                               1 	(obj:0)
ABS_U_0_0                                           1 	(obj:0)
V_1_1                                               1 	(obj:0)
W_1_1                                               1 	(obj:0)
ABS_ALT_U_0_6                                       1 	(obj:1)
V_3_1                                              -1 	(obj:0)
ABS_V_1_1                                           1 	(obj:0)
ABS_V_3_1                                           1 	(obj:0)
ABS_W_1_1                                           1 	(obj:0)
ABS_ALT_U_1_1                                       1 	(obj:1)
V_3_2                                               1 	(obj:0)
V_1_3                                              -1 	(obj:0)
W_1_3                                              -1 	(obj:0)
ABS_V_3_2                                           1 	(obj:0)
ABS_V_1_3                                           1 	(obj:0)
ABS_W_1_3                                           1 	(obj:0)
ABS_ALT_U_1_3                                       1 	(obj:1)
V_3_3                                               1 	(obj:0)
V_1_4                                               1 	(obj:0)
W_1_4                                              -1 	(obj:0)
ABS_V_3_3                                           1 	(obj:0)
ABS_V_1_4                                           1 	(obj:0)
ABS_W_1_4                                           1 	(obj:0)
W_1_5                                               1 	(obj:0)
ABS_ALT_U_1_5                                       1 	(obj:1)
ABS_ALT_U_1_6                                       1 	(obj:1)
V_3_4                                              -1 	(obj:0)
ABS_W_1_5                                           1 	(obj:0)
U_0_6                                               1 	(obj:0)
V_1_6                                              -1 	(obj:0)
ABS_V_3_4                                           1 	(obj:0)
ABS_U_0_6                                           1 	(obj:0)
ABS_V_1_6                                           1 	(obj:0)
ABS_ALT_U_2_1                                       1 	(obj:1)
ABS_ALT_U_2_2                                       1 	(obj:1)
W_2_1                                              -1 	(obj:0)
ABS_ALT_U_2_4                                       1 	(obj:1)
ABS_W_2_1                                           1 	(obj:0)
W_2_2                                               1 	(obj:0)
W_0_0                                               1 	(obj:0)
ABS_W_2_2                                           1 	(obj:0)
ABS_W_0_0                                           1 	(obj:0)
ABS_ALT_U_2_6                                       1 	(obj:1)
W_2_5                                              -1 	(obj:0)
ABS_ALT_U_3_1                                       1 	(obj:1)
ABS_ALT_U_3_2                                       1 	(obj:1)
ABS_W_2_5                                           1 	(obj:0)
VALUE_0_1_2_6                                       1 	(obj:0)
W_2_6                                              -1 	(obj:0)
ABS_W_2_6                                           1 	(obj:0)
ABS_ALT_U_3_3                                       1 	(obj:1)
W_3_1                                              -1 	(obj:0)
ABS_W_3_1                                           1 	(obj:0)
W_3_2                                               1 	(obj:0)
ABS_ALT_U_3_6                                       1 	(obj:1)
W_0_5                                               1 	(obj:0)
ABS_W_3_2                                           1 	(obj:0)
W_3_3                                               1 	(obj:0)
ABS_W_0_5                                           1 	(obj:0)
ABS_W_3_3                                           1 	(obj:0)
W_3_5                                              -1 	(obj:0)
ABS_ALT_V_0_0                                       1 	(obj:1)
ABS_W_3_5                                           1 	(obj:0)
V_2_1                                              -1 	(obj:0)
ABS_ALT_V_0_4                                       1 	(obj:1)
ABS_V_2_1                                           1 	(obj:0)
V_2_2                                               1 	(obj:0)
ABS_V_2_2                                           1 	(obj:0)
V_2_4                                              -1 	(obj:0)
ABS_ALT_V_1_1                                       1 	(obj:1)
ABS_V_2_4                                           1 	(obj:0)
V_2_5                                              -1 	(obj:0)
ABS_V_2_5                                           1 	(obj:0)
ABS_ALT_V_1_3                                       1 	(obj:1)
ABS_ALT_V_1_4                                       1 	(obj:1)
ABS_ALT_V_1_6                                       1 	(obj:1)
ABS_ALT_V_2_1                                       1 	(obj:1)
ABS_ALT_V_2_2                                       1 	(obj:1)
ABS_ALT_V_2_4                                       1 	(obj:1)
ABS_ALT_V_2_5                                       1 	(obj:1)
ABS_ALT_V_3_1                                       1 	(obj:1)
ABS_ALT_V_3_2                                       1 	(obj:1)
ABS_ALT_V_3_3                                       1 	(obj:1)
ABS_ALT_V_3_4                                       1 	(obj:1)
U_1_1                                               1 	(obj:0)
ABS_U_1_1                                           1 	(obj:0)
V_0_0                                               1 	(obj:0)
ABS_V_0_0                                           1 	(obj:0)
U_1_3                                              -1 	(obj:0)
ABS_U_1_3                                           1 	(obj:0)
V_0_4                                               1 	(obj:0)
ABS_V_0_4                                           1 	(obj:0)
U_1_5                                              -1 	(obj:0)
ABS_U_1_5                                           1 	(obj:0)
U_1_6                                               1 	(obj:0)
ABS_U_1_6                                           1 	(obj:0)
U_2_1                                              -1 	(obj:0)
ABS_U_2_1                                           1 	(obj:0)
U_2_2                                               1 	(obj:0)
ABS_U_2_2                                           1 	(obj:0)
U_2_4                                              -1 	(obj:0)
ABS_U_2_4                                           1 	(obj:0)
U_2_6                                              -1 	(obj:0)
ABS_U_2_6                                           1 	(obj:0)
U_3_1                                              -1 	(obj:0)
VALUE_1_1_1_1                                       1 	(obj:0)
ABS_U_3_1                                           1 	(obj:0)
VALUE_1_1_1_3                                      -1 	(obj:0)
U_3_2                                               1 	(obj:0)
ABS_U_3_2                                           1 	(obj:0)
U_3_3                                               1 	(obj:0)
ABS_U_3_3                                           1 	(obj:0)
VALUE_1_1_2_1                                      -1 	(obj:0)
VALUE_1_1_2_6                                       1 	(obj:0)
U_3_6                                              -1 	(obj:0)
VALUE_1_1_3_1                                      -1 	(obj:0)
ABS_U_3_6                                           1 	(obj:0)
VALUE_1_1_3_3                                       1 	(obj:0)
VALUE_1_2_0_5                                       1 	(obj:0)
VALUE_1_2_1_1                                      -1 	(obj:0)
VALUE_1_2_1_5                                       1 	(obj:0)
VALUE_1_2_2_1                                       1 	(obj:0)
VALUE_1_2_2_5                                      -1 	(obj:0)
VALUE_1_2_3_1                                       1 	(obj:0)
VALUE_1_2_3_5                                      -1 	(obj:0)
VALUE_1_3_1_1                                      -1 	(obj:0)
VALUE_1_3_1_3                                       1 	(obj:0)
VALUE_1_3_2_1                                       1 	(obj:0)
VALUE_1_3_3_1                                       1 	(obj:0)
VALUE_1_3_3_3                                      -1 	(obj:0)
VALUE_2_0_1_4                                       1 	(obj:0)
VALUE_2_1_1_1                                      -1 	(obj:0)
VALUE_2_1_1_4                                       1 	(obj:0)
VALUE_2_1_2_1                                       1 	(obj:0)
VALUE_2_1_2_6                                      -1 	(obj:0)
VALUE_2_1_3_1                                       1 	(obj:0)
VALUE_2_2_1_1                                       1 	(obj:0)
VALUE_2_2_1_4                                      -1 	(obj:0)
VALUE_2_2_2_1                                      -1 	(obj:0)
VALUE_2_2_2_2                                       1 	(obj:0)
VALUE_2_2_3_1                                      -1 	(obj:0)
VALUE_2_2_3_2                                       1 	(obj:0)
VALUE_2_3_1_1                                       1 	(obj:0)
VALUE_2_3_1_4                                      -1 	(obj:0)
VALUE_2_3_2_1                                      -1 	(obj:0)
VALUE_2_3_2_2                                       1 	(obj:0)
VALUE_0_0_0_0                                       1 	(obj:0)
VALUE_2_3_3_1                                      -1 	(obj:0)
VALUE_2_3_3_2                                       1 	(obj:0)
VALUE_3_1_1_1                                      -1 	(obj:0)
VALUE_3_1_1_3                                       1 	(obj:0)
VALUE_3_1_2_1                                       1 	(obj:0)
VALUE_3_1_2_6                                      -1 	(obj:0)
VALUE_3_1_3_1                                       1 	(obj:0)
VALUE_3_1_3_3                                      -1 	(obj:0)
VALUE_3_2_1_1                                       1 	(obj:0)
VALUE_3_2_2_1                                      -1 	(obj:0)
VALUE_3_2_2_2                                       1 	(obj:0)
VALUE_3_2_3_1                                      -1 	(obj:0)
VALUE_3_2_3_2                                       1 	(obj:0)
VALUE_3_3_1_1                                       1 	(obj:0)
VALUE_3_3_1_3                                      -1 	(obj:0)
VALUE_3_3_2_1                                      -1 	(obj:0)
VALUE_3_3_2_2                                       1 	(obj:0)
VALUE_3_3_3_1                                      -1 	(obj:0)
VALUE_3_3_3_2                                       1 	(obj:0)
VALUE_3_3_3_3                                       1 	(obj:0)
